Welcome to the CBC MILP Solver
Version: Devel (unstable)
Build Date: Feb  6 2022
command line - -import /home/danilo/psp-janniele/J30/j3041/j3041_3.lp -timeM elapsed -seconds 10800 -solve -quit (default strategy 1)
seconds was changed from 1e+08 to 10800
Continuous objective value is 0 - 0.123309 seconds
Cgl0002I 23 variables fixed
Cgl0003I 80 fixed, 0 tightened bounds, 20 strengthened rows, 1 substitutions
Cgl0003I 0 fixed, 0 tightened bounds, 16 strengthened rows, 0 substitutions
Cgl0003I 0 fixed, 0 tightened bounds, 10 strengthened rows, 0 substitutions
Cgl0003I 0 fixed, 0 tightened bounds, 7 strengthened rows, 0 substitutions
Cgl0003I 0 fixed, 0 tightened bounds, 5 strengthened rows, 0 substitutions
Cgl0003I 0 fixed, 0 tightened bounds, 4 strengthened rows, 0 substitutions
Cgl0003I 0 fixed, 0 tightened bounds, 4 strengthened rows, 0 substitutions
Cgl0003I 0 fixed, 0 tightened bounds, 3 strengthened rows, 0 substitutions
Cgl0003I 0 fixed, 0 tightened bounds, 3 strengthened rows, 0 substitutions
Cgl0003I 0 fixed, 0 tightened bounds, 3 strengthened rows, 0 substitutions
Cgl0004I processed model has 254 rows, 591 columns (591 integer (584 of which binary)) and 6926 elements
Coin3009W Conflict graph built in 0.053 seconds, density: 2.659%
Cgl0015I Clique Strengthening extended 0 cliques, 0 were dominated
Cbc0045I Cutoff increment increased from 0.0001 to 0.9999
Cbc0045I 1 integer variables out of 591 objects (591 integer) have cost of -1 - high priority
Cbc0045I branch on satisfied Y create fake objective Y random cost Y
Cbc0038I Initial state - 63 integers unsatisfied sum - 15.7011
Cbc0038I Pass   1: suminf.   10.27454 (52) obj. 0.44448 iterations 74
Cbc0038I Pass   2: suminf.    7.47587 (41) obj. 0.762639 iterations 20
Cbc0038I Pass   3: suminf.    5.75419 (37) obj. 1 iterations 39
Cbc0038I Pass   4: suminf.    4.75425 (30) obj. 1 iterations 68
Cbc0038I Pass   5: suminf.    3.41457 (31) obj. 1 iterations 14
Cbc0038I Pass   6: suminf.    2.41457 (29) obj. 1 iterations 6
Cbc0038I Pass   7: suminf.    5.32415 (19) obj. 1 iterations 72
Cbc0038I Pass   8: suminf.    3.13367 (18) obj. 1 iterations 22
Cbc0038I Pass   9: suminf.    3.13367 (18) obj. 1 iterations 7
Cbc0038I Pass  10: suminf.    3.71352 (21) obj. 1 iterations 52
Cbc0038I Pass  11: suminf.    3.96984 (15) obj. 1 iterations 57
Cbc0038I Pass  12: suminf.    3.22063 (14) obj. 1 iterations 11
Cbc0038I Pass  13: suminf.    3.22063 (14) obj. 1 iterations 0
Cbc0038I Pass  14: suminf.    2.12245 (10) obj. 1 iterations 40
Cbc0038I Pass  15: suminf.    1.55102 (10) obj. 1 iterations 7
Cbc0038I Pass  16: suminf.    3.06667 (11) obj. 1 iterations 37
Cbc0038I Pass  17: suminf.    2.90612 (11) obj. 1 iterations 12
Cbc0038I Pass  18: suminf.    3.12217 (11) obj. 1 iterations 48
Cbc0038I Pass  19: suminf.    3.12217 (11) obj. 1 iterations 0
Cbc0038I Pass  20: suminf.    2.90417 (11) obj. 1 iterations 35
Cbc0038I Pass  21: suminf.    2.57619 (10) obj. 1 iterations 15
Cbc0038I Pass  22: suminf.    2.83441 (12) obj. 1 iterations 39
Cbc0038I Pass  23: suminf.    2.69048 (11) obj. 1 iterations 19
Cbc0038I Pass  24: suminf.    2.49660 (10) obj. 1 iterations 33
Cbc0038I Pass  25: suminf.    2.21565 (9) obj. 1 iterations 4
Cbc0038I Pass  26: suminf.    2.12245 (10) obj. 1 iterations 33
Cbc0038I Pass  27: suminf.    1.55102 (10) obj. 1 iterations 5
Cbc0038I Pass  28: suminf.    3.06667 (11) obj. 1 iterations 37
Cbc0038I Pass  29: suminf.    2.90612 (11) obj. 1 iterations 12
Cbc0038I Pass  30: suminf.    2.89583 (12) obj. 1 iterations 46
Cbc0038I Pass  31: suminf.    2.89583 (12) obj. 1 iterations 1
Cbc0038I Pass  32: suminf.    2.21565 (9) obj. 1 iterations 36
Cbc0038I Pass  33: suminf.    1.64422 (8) obj. 1 iterations 4
Cbc0038I Pass  34: suminf.    2.26190 (9) obj. 1 iterations 49
Cbc0038I Pass  35: suminf.    2.26190 (9) obj. 1 iterations 2
Cbc0038I Pass  36: suminf.    1.57619 (6) obj. 1 iterations 39
Cbc0038I Pass  37: suminf.    1.57619 (6) obj. 1 iterations 1
Cbc0038I Pass  38: suminf.    1.80952 (8) obj. 1 iterations 34
Cbc0038I Pass  39: suminf.    2.21565 (9) obj. 1 iterations 31
Cbc0038I Pass  40: suminf.    2.26190 (9) obj. 1 iterations 37
Cbc0038I Pass  41: suminf.    2.26190 (9) obj. 1 iterations 3
Cbc0038I Pass  42: suminf.    1.57619 (6) obj. 1 iterations 25
Cbc0038I Pass  43: suminf.    1.57619 (6) obj. 1 iterations 1
Cbc0038I Pass  44: suminf.    1.80952 (8) obj. 1 iterations 31
Cbc0038I Pass  45: suminf.    2.21565 (9) obj. 1 iterations 28
Cbc0038I Pass  46: suminf.    2.26190 (9) obj. 1 iterations 38
Cbc0038I Pass  47: suminf.    2.26190 (9) obj. 1 iterations 5
Cbc0038I Pass  48: suminf.    1.57619 (6) obj. 1 iterations 26
Cbc0038I Pass  49: suminf.    1.57619 (6) obj. 1 iterations 0
Cbc0038I Pass  50: suminf.    1.80952 (8) obj. 1 iterations 27
Cbc0038I Pass  51: suminf.    2.21565 (9) obj. 1 iterations 25
Cbc0038I Pass  52: suminf.    2.26190 (9) obj. 1 iterations 34
Cbc0038I Pass  53: suminf.    2.26190 (9) obj. 1 iterations 3
Cbc0038I Pass  54: suminf.    1.57619 (6) obj. 1 iterations 31
Cbc0038I Pass  55: suminf.    1.57619 (6) obj. 1 iterations 1
Cbc0038I Pass  56: suminf.    1.80952 (8) obj. 1 iterations 31
Cbc0038I Pass  57: suminf.    2.21565 (9) obj. 1 iterations 23
Cbc0038I Pass  58: suminf.    2.26190 (9) obj. 1 iterations 31
Cbc0038I Pass  59: suminf.    2.26190 (9) obj. 1 iterations 2
Cbc0038I Pass  60: suminf.    1.57619 (6) obj. 1 iterations 34
Cbc0038I Pass  61: suminf.    1.57619 (6) obj. 1 iterations 1
Cbc0038I Pass  62: suminf.    1.80952 (8) obj. 1 iterations 32
Cbc0038I Pass  63: suminf.    2.21565 (9) obj. 1 iterations 33
Cbc0038I Pass  64: suminf.    2.26190 (9) obj. 1 iterations 39
Cbc0038I Pass  65: suminf.    2.26190 (9) obj. 1 iterations 2
Cbc0038I Pass  66: suminf.    1.57619 (6) obj. 1 iterations 31
Cbc0038I Pass  67: suminf.    1.57619 (6) obj. 1 iterations 1
Cbc0038I Pass  68: suminf.    1.80952 (8) obj. 1 iterations 36
Cbc0038I Pass  69: suminf.    2.21565 (9) obj. 1 iterations 26
Cbc0038I Pass  70: suminf.    2.26190 (9) obj. 1 iterations 40
Cbc0038I Pass  71: suminf.    2.26190 (9) obj. 1 iterations 1
Cbc0038I Pass  72: suminf.    1.57619 (6) obj. 1 iterations 34
Cbc0038I Pass  73: suminf.    1.57619 (6) obj. 1 iterations 1
Cbc0038I Pass  74: suminf.    1.80952 (8) obj. 1 iterations 32
Cbc0038I Pass  75: suminf.    2.21565 (9) obj. 1 iterations 28
Cbc0038I Pass  76: suminf.    2.26190 (9) obj. 1 iterations 50
Cbc0038I Pass  77: suminf.    2.26190 (9) obj. 1 iterations 1
Cbc0038I Pass  78: suminf.    1.57619 (6) obj. 1 iterations 28
Cbc0038I Pass  79: suminf.    1.57619 (6) obj. 1 iterations 1
Cbc0038I Pass  80: suminf.    1.80952 (8) obj. 1 iterations 38
Cbc0038I Pass  81: suminf.    2.21565 (9) obj. 1 iterations 29
Cbc0038I Pass  82: suminf.    2.26190 (9) obj. 1 iterations 37
Cbc0038I Pass  83: suminf.    2.26190 (9) obj. 1 iterations 2
Cbc0038I Pass  84: suminf.    1.57619 (6) obj. 1 iterations 25
Cbc0038I Pass  85: suminf.    1.57619 (6) obj. 1 iterations 1
Cbc0038I Pass  86: suminf.    1.80952 (8) obj. 1 iterations 29
Cbc0038I Pass  87: suminf.    2.21565 (9) obj. 1 iterations 25
Cbc0038I Pass  88: suminf.    2.26190 (9) obj. 1 iterations 40
Cbc0038I Pass  89: suminf.    2.26190 (9) obj. 1 iterations 3
Cbc0038I Pass  90: suminf.    1.57619 (6) obj. 1 iterations 27
Cbc0038I Pass  91: suminf.    1.57619 (6) obj. 1 iterations 1
Cbc0038I Pass  92: suminf.    1.80952 (8) obj. 1 iterations 29
Cbc0038I Pass  93: suminf.    2.21565 (9) obj. 1 iterations 26
Cbc0038I Pass  94: suminf.    2.26190 (9) obj. 1 iterations 38
Cbc0038I Pass  95: suminf.    2.26190 (9) obj. 1 iterations 4
Cbc0038I Pass  96: suminf.    1.57619 (6) obj. 1 iterations 27
Cbc0038I Pass  97: suminf.    1.57619 (6) obj. 1 iterations 1
Cbc0038I Pass  98: suminf.    1.80952 (8) obj. 1 iterations 31
Cbc0038I Pass  99: suminf.    2.21565 (9) obj. 1 iterations 26
Cbc0038I Pass 100: suminf.    9.80225 (38) obj. 1 iterations 79
Cbc0038I No solution found this major pass
Cbc0038I Before mini branch and bound, 470 integers at bound fixed and 0 continuous
Cbc0038I Mini branch and bound did not improve solution (1.63 seconds)
Cbc0038I Full problem 255 rows 591 columns, reduced to 254 rows 591 columns - too large
Cbc0038I After 1.67 seconds - Feasibility pump exiting - took 0.46 seconds
Cbc0031I 39 added rows had average density of 72
Cbc0013I At root node, 39 cuts changed objective from 0.096033224 to 1 in 10 passes
Cbc0014I Cut generator 0 (Probing) - 94 row cuts average 8.2 elements, 46 column cuts (46 active)  in 0.333 seconds - new frequency is 1
Cbc0014I Cut generator 1 (Gomory) - 32 row cuts average 311.0 elements, 0 column cuts (0 active)  in 0.088 seconds - new frequency is 1
Cbc0014I Cut generator 2 (Knapsack) - 46 row cuts average 12.1 elements, 0 column cuts (0 active)  in 0.045 seconds - new frequency is 1
Cbc0014I Cut generator 3 (Clique) - 25 row cuts average 13.9 elements, 0 column cuts (0 active)  in 0.006 seconds - new frequency is 1
Cbc0014I Cut generator 4 (OddWheel) - 2 row cuts average 5.0 elements, 0 column cuts (0 active)  in 0.025 seconds - new frequency is -100
Cbc0014I Cut generator 5 (MixedIntegerRounding2) - 49 row cuts average 52.3 elements, 0 column cuts (0 active)  in 0.019 seconds - new frequency is 1
Cbc0014I Cut generator 6 (FlowCover) - 1 row cuts average 2.0 elements, 0 column cuts (0 active)  in 0.005 seconds - new frequency is -100
Cbc0014I Cut generator 7 (TwoMirCuts) - 233 row cuts average 266.5 elements, 0 column cuts (0 active)  in 0.325 seconds - new frequency is 1
Cbc0014I Cut generator 8 (ZeroHalf) - 84 row cuts average 54.9 elements, 0 column cuts (0 active)  in 0.043 seconds - new frequency is 1
Cbc0010I After 0 nodes, 1 on tree, 1e+50 best solution, best possible 1 (3.71 seconds)
Cbc0016I Integer solution of 1 found by strong branching after 1483 iterations and 5 nodes (4.17 seconds)
Cbc0001I Search completed - best objective 1, took 1483 iterations and 5 nodes (4.17 seconds)
Cbc0032I Strong branching done 224 times (4561 iterations), fathomed 2 nodes and fixed 6 variables
Cbc0035I Maximum depth 2, 0 variables fixed on reduced cost
Cuts at root node changed objective from 0.0960332 to 1
Probing was tried 18 times and created 212 cuts of which 0 were active after adding rounds of cuts (0.364038 seconds)
Gomory was tried 18 times and created 32 cuts of which 0 were active after adding rounds of cuts (0.098309 seconds)
Knapsack was tried 18 times and created 55 cuts of which 0 were active after adding rounds of cuts (0.073317 seconds)
Clique was tried 18 times and created 36 cuts of which 0 were active after adding rounds of cuts (0.00975 seconds)
OddWheel was tried 10 times and created 2 cuts of which 0 were active after adding rounds of cuts (0.025036 seconds)
MixedIntegerRounding2 was tried 18 times and created 62 cuts of which 0 were active after adding rounds of cuts (0.031659 seconds)
FlowCover was tried 10 times and created 1 cuts of which 0 were active after adding rounds of cuts (0.004568 seconds)
TwoMirCuts was tried 18 times and created 249 cuts of which 0 were active after adding rounds of cuts (0.35077 seconds)
ZeroHalf was tried 18 times and created 117 cuts of which 0 were active after adding rounds of cuts (0.062621 seconds)

Result - Optimal solution found
Objective value:                1
Enumerated nodes:               5
Total iterations:               1483
Time (CPU seconds):             4.26121
Time (Wallclock seconds):       4.19257
Total time (CPU seconds):       4.27504   (Wallclock seconds):       4.20717
